(declare-const p535 Real)
(declare-const p985 Real)
(declare-const p680 Real)
(declare-const p785 Real)
(declare-const fee_bl Real)
(declare-const income Real)
(assert (= p535 (* 0.0535 (ite (> income 32570) 32570 income))))
(assert (= p680 (ite (> income 32570) (* 0.0680 (- (ite (> income 106990) 106990 income) 32570)) 0)))
(assert (= p785 (ite (> income 106990) (* 0.0785 (- (ite (> income 198630) 198630 income) 106990)) 0)))
(assert (= p985 (ite (> income 198630) (* 0.0985 (- income 198630)) 0)))
(assert (= fee_bl (+ (+ (+ p535 p680) p785) p985)))